results_rootrelaxation/bin018_050_040.srr.sol
solution status: optimal solution found
objective value:                                    0
_var435_                           0.0472104868482325 	(obj:0)
_var950_                            0.116173178617313 	(obj:0)
_var2765_                           0.174817054078915 	(obj:0)
_var2766_                           0.129603192101042 	(obj:0)
_var2767_                           0.252753859073497 	(obj:0)
_var2774_                          0.0485623477259753 	(obj:0)
_var2778_                          0.0883741666828409 	(obj:0)
_var2780_                           0.173940894035716 	(obj:0)
_var2783_                          0.0108787436650482 	(obj:0)
_var2785_                           0.140602706527061 	(obj:0)
_var2788_                          0.0394065389713731 	(obj:0)
_var2789_                           0.351332911726466 	(obj:0)
_var2790_                           0.112490511174923 	(obj:0)
_var2792_                            0.10121055428864 	(obj:0)
_var2793_                          0.0693063622020392 	(obj:0)
_var2797_                          0.0761666160372088 	(obj:0)
_var2798_                           0.138339086677952 	(obj:0)
_var2801_                           0.148589377485462 	(obj:0)
_var2804_                           0.296259594192501 	(obj:0)
_var2805_                           0.136165943812712 	(obj:0)
_var2807_                          0.0987902414378747 	(obj:0)
_var2809_                          0.0260342007706814 	(obj:0)
_var2815_                          0.0456283742767072 	(obj:0)
_var2816_                           0.173546108468436 	(obj:0)
_var2819_                           0.232250047165084 	(obj:0)
_var2820_                           0.124694786429702 	(obj:0)
_var2823_                          0.0589446009546537 	(obj:0)
_var2825_                           0.300628900207757 	(obj:0)
_var2827_                          0.0320502151375744 	(obj:0)
_var2828_                           0.149092042339321 	(obj:0)
_var2830_                           0.186888097896759 	(obj:0)
_var2832_                           0.379826812469698 	(obj:0)
_var2834_                           0.379358079818082 	(obj:0)
_var2841_                           0.128238900065846 	(obj:0)
_var2842_                           0.108150421503423 	(obj:0)
_var2844_                           0.223924886248953 	(obj:0)
_var2845_                          0.0523390474931355 	(obj:0)
_var2846_                           0.134897775644111 	(obj:0)
_var2847_                         0.00181223763370325 	(obj:0)
_var2849_                           0.150587726671385 	(obj:0)
_var2850_                           0.235062370629844 	(obj:0)
_var2857_                          0.0207681924100058 	(obj:0)
_var2860_                          0.0236931147641061 	(obj:0)
_var2861_                           0.300528041543453 	(obj:0)
_var2862_                           0.313592396139441 	(obj:0)
_var2864_                           0.262884202507837 	(obj:0)
_var2868_                           0.124569051989803 	(obj:0)
_var2873_                         0.00375404443845466 	(obj:0)
_var2874_                          0.0122117231808886 	(obj:0)
_var2877_                           0.326575722954433 	(obj:0)
_var2879_                            0.22487785105391 	(obj:0)
_var2880_                           0.214344968745599 	(obj:0)
_var2885_                         0.00900993002641116 	(obj:0)
_var2886_                          0.0678056232379798 	(obj:0)
_var2889_                           0.104701692400889 	(obj:0)
_var2890_                           0.183429716193558 	(obj:0)
_var2891_                           0.140973164037858 	(obj:0)
_var2892_                          0.0731735471247697 	(obj:0)
_var2895_                           0.119568897935855 	(obj:0)
_var2896_                          0.0332128692936027 	(obj:0)
_var2897_                           0.204491686983048 	(obj:0)
_var2898_                          0.0601995878168429 	(obj:0)
_var2904_                           0.176318871510852 	(obj:0)
_var2906_                          0.0650184807797038 	(obj:0)
_var2907_                           0.105186644730769 	(obj:0)
_var2909_                           0.282683330397936 	(obj:0)
_var2910_                           0.221222778536287 	(obj:0)
_var2912_                          0.0221691167480048 	(obj:0)
_var2915_                          0.0734974176541454 	(obj:0)
_var2921_                          0.0201916228204651 	(obj:0)
_var2922_                           0.339937934356901 	(obj:0)
_var2923_                           0.104988306120249 	(obj:0)
_var2924_                          0.0535697470428844 	(obj:0)
_var2925_                          0.0350776450100888 	(obj:0)
_var2926_                          0.0698291515672067 	(obj:0)
_var2928_                           0.420448677402206 	(obj:0)
_var2932_                           0.179830591577333 	(obj:0)
_var2933_                           0.394164695694611 	(obj:0)
_var2936_                           0.115915144508312 	(obj:0)
_var2937_                          0.0702972933008424 	(obj:0)
_var2939_                          0.0628927393340434 	(obj:0)
_var2940_                           0.286199271977817 	(obj:0)
_var2944_                           0.134261634134169 	(obj:0)
_var2946_                           0.152405283307385 	(obj:0)
_var2947_                          0.0897456212220751 	(obj:0)
_var2948_                           0.143309675402054 	(obj:0)
_var2952_                          0.0268803746059697 	(obj:0)
_var2956_                           0.122393332193494 	(obj:0)
_var2958_                          0.0237348822270685 	(obj:0)
_var2959_                           0.113252486362178 	(obj:0)
_var2960_                           0.103678084336073 	(obj:0)
_var2961_                           0.114514319153956 	(obj:0)
_var2963_                          0.0065213190096485 	(obj:0)
_var2965_                          0.0393915918750227 	(obj:0)
_var2967_                           0.176914651836011 	(obj:0)
_var2968_                         0.00268067358587204 	(obj:0)
_var2969_                           0.264022622890513 	(obj:0)
_var2971_                           0.246006951961221 	(obj:0)
_var2973_                          0.0941081931339922 	(obj:0)
_var2974_                          0.0926757276355043 	(obj:0)
_var2976_                           0.116142822756685 	(obj:0)
_var2981_                           0.090205278398221 	(obj:0)
_var2983_                           0.156252434121572 	(obj:0)
_var2987_                          0.0308222447363777 	(obj:0)
_var2988_                            0.08992318134885 	(obj:0)
_var2989_                          0.0862880525794015 	(obj:0)
_var2991_                         0.00318308032274783 	(obj:0)
_var2992_                            0.16750566458755 	(obj:0)
_var2993_                          0.0946203952983022 	(obj:0)
_var2994_                          0.0236768747357839 	(obj:0)
_var2995_                          0.0108922555258558 	(obj:0)
_var2996_                          0.0830087233782026 	(obj:0)
_var3001_                           0.142285019258461 	(obj:0)
_var3002_                           0.119281629276521 	(obj:0)
_var3004_                          0.0305915628021279 	(obj:0)
_var3006_                            0.14354231624506 	(obj:0)
_var3007_                          0.0463203819165561 	(obj:0)
_var3009_                            0.14686645092299 	(obj:0)
_var3011_                          0.0456542682129273 	(obj:0)
_var3012_                          0.0420580474864945 	(obj:0)
_var3013_                          0.0103496315260627 	(obj:0)
_var3014_                          0.0586100836042593 	(obj:0)
_var3015_                         0.00415051137432916 	(obj:0)
_var3016_                           0.104655914439201 	(obj:0)
_var3017_                            0.01837859501442 	(obj:0)
_var3019_                          0.0569455981292342 	(obj:0)
_var3020_                          0.0678513411879734 	(obj:0)
_var3021_                           0.167317690058075 	(obj:0)
_var3022_                          0.0260332764190291 	(obj:0)
_var3023_                          0.0895595270724278 	(obj:0)
_var3025_                          0.0469738465705871 	(obj:0)
_var3026_                           0.140380367072639 	(obj:0)
_var3027_                          0.0566760582628739 	(obj:0)
_var3028_                          0.0617412152284417 	(obj:0)
_var3029_                          0.0197092957260823 	(obj:0)
_var3030_                         0.00867937491566678 	(obj:0)
_var3032_                          0.0427843826859639 	(obj:0)
_var3033_                          0.0705342202281235 	(obj:0)
_var3034_                           0.029026206756086 	(obj:0)
_var3035_                          0.0365281231379922 	(obj:0)
_var3036_                          0.0594996120643988 	(obj:0)
_var3037_                          0.0440956763512196 	(obj:0)
_var3038_                         0.00193436029472099 	(obj:0)
_var3039_                          0.0411249274460567 	(obj:0)
_var3040_                          0.0463922609266387 	(obj:0)
_var3041_                          0.0934794540179991 	(obj:0)
_var3045_                         4.38757182174981e-05 	(obj:0)
_var3048_                          0.0149157942628273 	(obj:0)
_var3051_                          0.0312306290213016 	(obj:0)
_var3054_                          0.0137244517871304 	(obj:0)
_var3056_                           0.057465509727061 	(obj:0)
_var3057_                           0.064854595153011 	(obj:0)
