results_rootrelaxation/bin018_050_040.srr.log
SCIP version 8.0.3.5 [precision: 8 byte] [memory: block] [mode: optimized] [LP solver: Soplex 6.0.1.3] [GitHash: 438792519e]
Copyright (c) 2002-2023 Zuse Institute Berlin (ZIB)

External libraries: 
  Readline 8.1         GNU library for command line editing (gnu.org/s/readline)
  Soplex 6.0.1.3       Linear Programming Solver developed at Zuse Institute Berlin (soplex.zib.de) [GitHash: 713be0fe]
  CppAD 20180000.0     Algorithmic Differentiation of C++ algorithms developed by B. Bell (github.com/coin-or/CppAD)
  ZLIB 1.2.11          General purpose compression library by J. Gailly and M. Adler (zlib.net)
  bliss 0.77           Computing Graph Automorphism Groups by T. Junttila and P. Kaski (www.tcs.hut.fi/Software/bliss/)

user parameter file <scip.set> not found - using default parameters

srr/relaxation = TRUE

read problem <instances/bin018_050_040.srr>
============

Original problem: 
original problem has 0 variables (0 bin, 0 int, 0 impl, 0 cont) and 170 constraints

presolving:
presolving (1 rounds: 1 fast, 1 medium, 1 exhaustive):
 0 deleted vars, 0 deleted constraints, 0 added constraints, 0 tightened bounds, 0 added holes, 0 changed sides, 0 changed coefficients
 0 implications, 0 cliques
presolved problem has 0 variables (0 bin, 0 int, 0 impl, 0 cont) and 170 constraints
    170 constraints of type <linear>
Presolving Time: 0.00

 time | node  | left  |LP iter|LP it/n|mem/heur|mdpt |vars |cons |rows |cuts |sepa|confs|strbr|  dualbound   | primalbound  |  gap   | compl. 
  0.0s|     1 |     0 |     1 |     - |   922k |   0 |   1 | 170 | 170 |   0 |  0 |   0 |   0 |      --      |      --      |    Inf | unknown
  0.2s|     1 |     0 |  1268 |     - |  7058k |   0 |1614 | 170 | 170 |   0 |  0 |   0 |   0 |      --      |      --      |    Inf | unknown
r 0.8s|     1 |     0 |  6975 |     - |simplero|   0 |2736 | 170 | 170 |   0 |  0 |   0 |   0 |      --      | 3.323072e+01 |    Inf | unknown
r 0.8s|     1 |     0 |  7071 |     - |simplero|   0 |2753 | 170 | 170 |   0 |  0 |   0 |   0 |      --      | 3.198025e+01 |    Inf | unknown
r 0.8s|     1 |     0 |  7165 |     - |simplero|   0 |2770 | 170 | 170 |   0 |  0 |   0 |   0 |      --      | 3.086098e+01 |    Inf | unknown
r 0.9s|     1 |     0 |  7296 |     - |simplero|   0 |2787 | 170 | 170 |   0 |  0 |   0 |   0 |      --      | 2.835265e+01 |    Inf | unknown
r 0.9s|     1 |     0 |  7453 |     - |simplero|   0 |2804 | 170 | 170 |   0 |  0 |   0 |   0 |      --      | 2.633195e+01 |    Inf | unknown
r 0.9s|     1 |     0 |  7607 |     - |simplero|   0 |2821 | 170 | 170 |   0 |  0 |   0 |   0 |      --      | 2.390379e+01 |    Inf | unknown
r 0.9s|     1 |     0 |  7700 |     - |simplero|   0 |2821 | 170 | 170 |   0 |  0 |   0 |   0 |      --      | 2.343236e+01 |    Inf | unknown
r 0.9s|     1 |     0 |  7708 |     - |simplero|   0 |2821 | 170 | 170 |   0 |  0 |   0 |   0 |      --      | 2.341943e+01 |    Inf | unknown
r 0.9s|     1 |     0 |  7710 |     - |simplero|   0 |2821 | 170 | 170 |   0 |  0 |   0 |   0 |      --      | 2.341894e+01 |    Inf | unknown
r 0.9s|     1 |     0 |  7858 |     - |simplero|   0 |2838 | 170 | 170 |   0 |  0 |   0 |   0 |      --      | 2.062997e+01 |    Inf | unknown
r 0.9s|     1 |     0 |  7911 |     - |simplero|   0 |2838 | 170 | 170 |   0 |  0 |   0 |   0 |      --      | 2.046161e+01 |    Inf | unknown
r 1.0s|     1 |     0 |  8021 |     - |simplero|   0 |2855 | 170 | 170 |   0 |  0 |   0 |   0 |      --      | 1.851406e+01 |    Inf | unknown
r 1.0s|     1 |     0 |  8101 |     - |simplero|   0 |2855 | 170 | 170 |   0 |  0 |   0 |   0 |      --      | 1.785982e+01 |    Inf | unknown
 time | node  | left  |LP iter|LP it/n|mem/heur|mdpt |vars |cons |rows |cuts |sepa|confs|strbr|  dualbound   | primalbound  |  gap   | compl. 
r 1.0s|     1 |     0 |  8116 |     - |simplero|   0 |2855 | 170 | 170 |   0 |  0 |   0 |   0 |      --      | 1.784709e+01 |    Inf | unknown
r 1.0s|     1 |     0 |  8120 |     - |simplero|   0 |2855 | 170 | 170 |   0 |  0 |   0 |   0 |      --      | 1.784678e+01 |    Inf | unknown
r 1.0s|     1 |     0 |  8121 |     - |simplero|   0 |2855 | 170 | 170 |   0 |  0 |   0 |   0 |      --      | 1.784676e+01 |    Inf | unknown
r 1.0s|     1 |     0 |  8297 |     - |simplero|   0 |2872 | 170 | 170 |   0 |  0 |   0 |   0 |      --      | 1.557820e+01 |    Inf | unknown
r 1.0s|     1 |     0 |  8336 |     - |simplero|   0 |2872 | 170 | 170 |   0 |  0 |   0 |   0 |      --      | 1.544069e+01 |    Inf | unknown
r 1.0s|     1 |     0 |  8360 |     - |simplero|   0 |2872 | 170 | 170 |   0 |  0 |   0 |   0 |      --      | 1.540153e+01 |    Inf | unknown
r 1.0s|     1 |     0 |  8363 |     - |simplero|   0 |2872 | 170 | 170 |   0 |  0 |   0 |   0 |      --      | 1.540112e+01 |    Inf | unknown
r 1.0s|     1 |     0 |  8499 |     - |simplero|   0 |2889 | 170 | 170 |   0 |  0 |   0 |   0 |      --      | 1.315401e+01 |    Inf | unknown
r 1.0s|     1 |     0 |  8599 |     - |simplero|   0 |2889 | 170 | 170 |   0 |  0 |   0 |   0 |      --      | 1.237165e+01 |    Inf | unknown
r 1.0s|     1 |     0 |  8617 |     - |simplero|   0 |2889 | 170 | 170 |   0 |  0 |   0 |   0 |      --      | 1.234446e+01 |    Inf | unknown
r 1.0s|     1 |     0 |  8620 |     - |simplero|   0 |2889 | 170 | 170 |   0 |  0 |   0 |   0 |      --      | 1.234437e+01 |    Inf | unknown
r 1.1s|     1 |     0 |  8621 |     - |simplero|   0 |2889 | 170 | 170 |   0 |  0 |   0 |   0 |      --      | 1.234435e+01 |    Inf | unknown
r 1.1s|     1 |     0 |  8771 |     - |simplero|   0 |2906 | 170 | 170 |   0 |  0 |   0 |   0 |      --      | 1.088428e+01 |    Inf | unknown
r 1.1s|     1 |     0 |  8849 |     - |simplero|   0 |2906 | 170 | 170 |   0 |  0 |   0 |   0 |      --      | 1.051526e+01 |    Inf | unknown
r 1.1s|     1 |     0 |  8870 |     - |simplero|   0 |2906 | 170 | 170 |   0 |  0 |   0 |   0 |      --      | 1.047001e+01 |    Inf | unknown
 time | node  | left  |LP iter|LP it/n|mem/heur|mdpt |vars |cons |rows |cuts |sepa|confs|strbr|  dualbound   | primalbound  |  gap   | compl. 
r 1.1s|     1 |     0 |  8883 |     - |simplero|   0 |2906 | 170 | 170 |   0 |  0 |   0 |   0 |      --      | 1.046475e+01 |    Inf | unknown
r 1.1s|     1 |     0 |  8991 |     - |simplero|   0 |2923 | 170 | 170 |   0 |  0 |   0 |   0 |      --      | 8.972515e+00 |    Inf | unknown
r 1.1s|     1 |     0 |  9129 |     - |simplero|   0 |2923 | 170 | 170 |   0 |  0 |   0 |   0 |      --      | 7.858183e+00 |    Inf | unknown
r 1.1s|     1 |     0 |  9155 |     - |simplero|   0 |2923 | 170 | 170 |   0 |  0 |   0 |   0 |      --      | 7.797956e+00 |    Inf | unknown
r 1.1s|     1 |     0 |  9176 |     - |simplero|   0 |2923 | 170 | 170 |   0 |  0 |   0 |   0 |      --      | 7.775733e+00 |    Inf | unknown
  1.1s|     1 |     0 |  9303 |     - |    14M |   0 |2940 | 170 | 170 |   0 |  0 |   0 |   0 |      --      | 7.775733e+00 |    Inf | unknown
r 1.1s|     1 |     0 |  9303 |     - |simplero|   0 |2940 | 170 | 170 |   0 |  0 |   0 |   0 |      --      | 6.441105e+00 |    Inf | unknown
r 1.2s|     1 |     0 |  9372 |     - |simplero|   0 |2940 | 170 | 170 |   0 |  0 |   0 |   0 |      --      | 6.182302e+00 |    Inf | unknown
r 1.2s|     1 |     0 |  9381 |     - |simplero|   0 |2940 | 170 | 170 |   0 |  0 |   0 |   0 |      --      | 6.180571e+00 |    Inf | unknown
r 1.2s|     1 |     0 |  9522 |     - |simplero|   0 |2957 | 170 | 170 |   0 |  0 |   0 |   0 |      --      | 5.030424e+00 |    Inf | unknown
r 1.2s|     1 |     0 |  9553 |     - |simplero|   0 |2957 | 170 | 170 |   0 |  0 |   0 |   0 |      --      | 4.998296e+00 |    Inf | unknown
r 1.2s|     1 |     0 |  9555 |     - |simplero|   0 |2957 | 170 | 170 |   0 |  0 |   0 |   0 |      --      | 4.998189e+00 |    Inf | unknown
r 1.2s|     1 |     0 |  9733 |     - |simplero|   0 |2974 | 170 | 170 |   0 |  0 |   0 |   0 |      --      | 3.616293e+00 |    Inf | unknown
r 1.2s|     1 |     0 |  9761 |     - |simplero|   0 |2974 | 170 | 170 |   0 |  0 |   0 |   0 |      --      | 3.567324e+00 |    Inf | unknown
r 1.2s|     1 |     0 |  9771 |     - |simplero|   0 |2974 | 170 | 170 |   0 |  0 |   0 |   0 |      --      | 3.554110e+00 |    Inf | unknown
 time | node  | left  |LP iter|LP it/n|mem/heur|mdpt |vars |cons |rows |cuts |sepa|confs|strbr|  dualbound   | primalbound  |  gap   | compl. 
r 1.2s|     1 |     0 |  9781 |     - |simplero|   0 |2974 | 170 | 170 |   0 |  0 |   0 |   0 |      --      | 3.549838e+00 |    Inf | unknown
r 1.2s|     1 |     0 |  9868 |     - |simplero|   0 |2991 | 170 | 170 |   0 |  0 |   0 |   0 |      --      | 2.822358e+00 |    Inf | unknown
r 1.2s|     1 |     0 |  9914 |     - |simplero|   0 |2991 | 170 | 170 |   0 |  0 |   0 |   0 |      --      | 2.665721e+00 |    Inf | unknown
r 1.2s|     1 |     0 | 10047 |     - |simplero|   0 |3008 | 170 | 170 |   0 |  0 |   0 |   0 |      --      | 1.654101e+00 |    Inf | unknown
r 1.3s|     1 |     0 | 10097 |     - |simplero|   0 |3008 | 170 | 170 |   0 |  0 |   0 |   0 |      --      | 1.567352e+00 |    Inf | unknown
r 1.3s|     1 |     0 | 10111 |     - |simplero|   0 |3008 | 170 | 170 |   0 |  0 |   0 |   0 |      --      | 1.554182e+00 |    Inf | unknown
r 1.3s|     1 |     0 | 10217 |     - |simplero|   0 |3025 | 170 | 170 |   0 |  0 |   0 |   0 |      --      | 9.281527e-01 |    Inf | unknown
r 1.3s|     1 |     0 | 10277 |     - |simplero|   0 |3025 | 170 | 170 |   0 |  0 |   0 |   0 |      --      | 8.108133e-01 |    Inf | unknown
r 1.3s|     1 |     0 | 10289 |     - |simplero|   0 |3025 | 170 | 170 |   0 |  0 |   0 |   0 |      --      | 7.993033e-01 |    Inf | unknown
r 1.3s|     1 |     0 | 10378 |     - |simplero|   0 |3042 | 170 | 170 |   0 |  0 |   0 |   0 |      --      | 2.810355e-01 |    Inf | unknown
r 1.3s|     1 |     0 | 10416 |     - |simplero|   0 |3042 | 170 | 170 |   0 |  0 |   0 |   0 |      --      | 2.041096e-01 |    Inf | unknown
r 1.3s|     1 |     0 | 10460 |     - |simplero|   0 |3059 | 170 | 170 |   0 |  0 |   0 |   0 |      --      | 0.000000e+00 |    Inf | unknown
  1.3s|     1 |     0 | 10460 |     - |    15M |   0 |3059 | 170 | 170 |   0 |  0 |   0 |   0 | 0.000000e+00 | 0.000000e+00 |   0.00%| unknown
  1.3s|     1 |     0 | 10460 |     - |    15M |   0 |3059 | 170 | 170 |   0 |  0 |   0 |   0 | 0.000000e+00 | 0.000000e+00 |   0.00%| unknown

SCIP Status        : problem is solved [optimal solution found]
Solving Time (sec) : 1.32
Solving Nodes      : 1
Primal Bound       : +0.00000000000000e+00 (54 solutions)
Dual Bound         : +0.00000000000000e+00
Gap                : 0.00 %

written transformed problem to file <results_rootrelaxation/bin018_050_040.srr.lp>
written transformed problem to file <results_rootrelaxation/bin018_050_040.srr.cip>

written solution information to file <results_rootrelaxation/bin018_050_040.srr.sol>



